(set-info :smt-lib-version 2.6)
(set-logic QF_FPLRA)
(set-option :produce-models true)
(set-info :source |Random FP created by PyMPF|)
(set-info :license |https://www.gnu.org/licenses/gpl-3.0.html|)
(set-info :category random)
(set-info :status sat)
(declare-const x Float32)
(assert (= x ((_ to_fp 8 24) #x5D477402)))
;; x should be Float32(0x5D477402 [Rational(898257156866834432), 898257156866834432.000000])

(declare-const y Real)
(assert (= y (fp.to_real x)))
;; y should be Rational(898257156866834432)

(assert (= y 898257156866834432.0))
(check-sat)
(exit)
